Route #1: 34 46 52 13 27 45 4
Route #2: 17 40 44 3 24 49 16 51 6
Route #3: 63 23 56 41 43 42 64 22 1 73 33
Route #4: 72 31 25 55 18 50 32 9 39 12
Route #5: 7 35 53 14 59 19 54 8 67
Route #6: 29 5 15 57 37 20 70 60 71 69 36 47 48
Route #7: 75 30 74 21 61 28 62 2 68
Route #8: 26 58 10 38 65 66 11
cost 754
